c created by edge2cnf
p cnf 500 3100
-1 -2 0
-1 -3 0
-1 -4 0
-1 -5 0
-2 -3 0
-2 -4 0
-2 -5 0
-3 -4 0
-3 -5 0
-4 -5 0
1 2 3 4 5 0
-6 -7 0
-6 -8 0
-6 -9 0
-6 -10 0
-7 -8 0
-7 -9 0
-7 -10 0
-8 -9 0
-8 -10 0
-9 -10 0
6 7 8 9 10 0
-11 -12 0
-11 -13 0
-11 -14 0
-11 -15 0
-12 -13 0
-12 -14 0
-12 -15 0
-13 -14 0
-13 -15 0
-14 -15 0
11 12 13 14 15 0
-16 -17 0
-16 -18 0
-16 -19 0
-16 -20 0
-17 -18 0
-17 -19 0
-17 -20 0
-18 -19 0
-18 -20 0
-19 -20 0
16 17 18 19 20 0
-21 -22 0
-21 -23 0
-21 -24 0
-21 -25 0
-22 -23 0
-22 -24 0
-22 -25 0
-23 -24 0
-23 -25 0
-24 -25 0
21 22 23 24 25 0
-26 -27 0
-26 -28 0
-26 -29 0
-26 -30 0
-27 -28 0
-27 -29 0
-27 -30 0
-28 -29 0
-28 -30 0
-29 -30 0
26 27 28 29 30 0
-31 -32 0
-31 -33 0
-31 -34 0
-31 -35 0
-32 -33 0
-32 -34 0
-32 -35 0
-33 -34 0
-33 -35 0
-34 -35 0
31 32 33 34 35 0
-36 -37 0
-36 -38 0
-36 -39 0
-36 -40 0
-37 -38 0
-37 -39 0
-37 -40 0
-38 -39 0
-38 -40 0
-39 -40 0
36 37 38 39 40 0
-41 -42 0
-41 -43 0
-41 -44 0
-41 -45 0
-42 -43 0
-42 -44 0
-42 -45 0
-43 -44 0
-43 -45 0
-44 -45 0
41 42 43 44 45 0
-46 -47 0
-46 -48 0
-46 -49 0
-46 -50 0
-47 -48 0
-47 -49 0
-47 -50 0
-48 -49 0
-48 -50 0
-49 -50 0
46 47 48 49 50 0
-51 -52 0
-51 -53 0
-51 -54 0
-51 -55 0
-52 -53 0
-52 -54 0
-52 -55 0
-53 -54 0
-53 -55 0
-54 -55 0
51 52 53 54 55 0
-56 -57 0
-56 -58 0
-56 -59 0
-56 -60 0
-57 -58 0
-57 -59 0
-57 -60 0
-58 -59 0
-58 -60 0
-59 -60 0
56 57 58 59 60 0
-61 -62 0
-61 -63 0
-61 -64 0
-61 -65 0
-62 -63 0
-62 -64 0
-62 -65 0
-63 -64 0
-63 -65 0
-64 -65 0
61 62 63 64 65 0
-66 -67 0
-66 -68 0
-66 -69 0
-66 -70 0
-67 -68 0
-67 -69 0
-67 -70 0
-68 -69 0
-68 -70 0
-69 -70 0
66 67 68 69 70 0
-71 -72 0
-71 -73 0
-71 -74 0
-71 -75 0
-72 -73 0
-72 -74 0
-72 -75 0
-73 -74 0
-73 -75 0
-74 -75 0
71 72 73 74 75 0
-76 -77 0
-76 -78 0
-76 -79 0
-76 -80 0
-77 -78 0
-77 -79 0
-77 -80 0
-78 -79 0
-78 -80 0
-79 -80 0
76 77 78 79 80 0
-81 -82 0
-81 -83 0
-81 -84 0
-81 -85 0
-82 -83 0
-82 -84 0
-82 -85 0
-83 -84 0
-83 -85 0
-84 -85 0
81 82 83 84 85 0
-86 -87 0
-86 -88 0
-86 -89 0
-86 -90 0
-87 -88 0
-87 -89 0
-87 -90 0
-88 -89 0
-88 -90 0
-89 -90 0
86 87 88 89 90 0
-91 -92 0
-91 -93 0
-91 -94 0
-91 -95 0
-92 -93 0
-92 -94 0
-92 -95 0
-93 -94 0
-93 -95 0
-94 -95 0
91 92 93 94 95 0
-96 -97 0
-96 -98 0
-96 -99 0
-96 -100 0
-97 -98 0
-97 -99 0
-97 -100 0
-98 -99 0
-98 -100 0
-99 -100 0
96 97 98 99 100 0
-101 -102 0
-101 -103 0
-101 -104 0
-101 -105 0
-102 -103 0
-102 -104 0
-102 -105 0
-103 -104 0
-103 -105 0
-104 -105 0
101 102 103 104 105 0
-106 -107 0
-106 -108 0
-106 -109 0
-106 -110 0
-107 -108 0
-107 -109 0
-107 -110 0
-108 -109 0
-108 -110 0
-109 -110 0
106 107 108 109 110 0
-111 -112 0
-111 -113 0
-111 -114 0
-111 -115 0
-112 -113 0
-112 -114 0
-112 -115 0
-113 -114 0
-113 -115 0
-114 -115 0
111 112 113 114 115 0
-116 -117 0
-116 -118 0
-116 -119 0
-116 -120 0
-117 -118 0
-117 -119 0
-117 -120 0
-118 -119 0
-118 -120 0
-119 -120 0
116 117 118 119 120 0
-121 -122 0
-121 -123 0
-121 -124 0
-121 -125 0
-122 -123 0
-122 -124 0
-122 -125 0
-123 -124 0
-123 -125 0
-124 -125 0
121 122 123 124 125 0
-126 -127 0
-126 -128 0
-126 -129 0
-126 -130 0
-127 -128 0
-127 -129 0
-127 -130 0
-128 -129 0
-128 -130 0
-129 -130 0
126 127 128 129 130 0
-131 -132 0
-131 -133 0
-131 -134 0
-131 -135 0
-132 -133 0
-132 -134 0
-132 -135 0
-133 -134 0
-133 -135 0
-134 -135 0
131 132 133 134 135 0
-136 -137 0
-136 -138 0
-136 -139 0
-136 -140 0
-137 -138 0
-137 -139 0
-137 -140 0
-138 -139 0
-138 -140 0
-139 -140 0
136 137 138 139 140 0
-141 -142 0
-141 -143 0
-141 -144 0
-141 -145 0
-142 -143 0
-142 -144 0
-142 -145 0
-143 -144 0
-143 -145 0
-144 -145 0
141 142 143 144 145 0
-146 -147 0
-146 -148 0
-146 -149 0
-146 -150 0
-147 -148 0
-147 -149 0
-147 -150 0
-148 -149 0
-148 -150 0
-149 -150 0
146 147 148 149 150 0
-151 -152 0
-151 -153 0
-151 -154 0
-151 -155 0
-152 -153 0
-152 -154 0
-152 -155 0
-153 -154 0
-153 -155 0
-154 -155 0
151 152 153 154 155 0
-156 -157 0
-156 -158 0
-156 -159 0
-156 -160 0
-157 -158 0
-157 -159 0
-157 -160 0
-158 -159 0
-158 -160 0
-159 -160 0
156 157 158 159 160 0
-161 -162 0
-161 -163 0
-161 -164 0
-161 -165 0
-162 -163 0
-162 -164 0
-162 -165 0
-163 -164 0
-163 -165 0
-164 -165 0
161 162 163 164 165 0
-166 -167 0
-166 -168 0
-166 -169 0
-166 -170 0
-167 -168 0
-167 -169 0
-167 -170 0
-168 -169 0
-168 -170 0
-169 -170 0
166 167 168 169 170 0
-171 -172 0
-171 -173 0
-171 -174 0
-171 -175 0
-172 -173 0
-172 -174 0
-172 -175 0
-173 -174 0
-173 -175 0
-174 -175 0
171 172 173 174 175 0
-176 -177 0
-176 -178 0
-176 -179 0
-176 -180 0
-177 -178 0
-177 -179 0
-177 -180 0
-178 -179 0
-178 -180 0
-179 -180 0
176 177 178 179 180 0
-181 -182 0
-181 -183 0
-181 -184 0
-181 -185 0
-182 -183 0
-182 -184 0
-182 -185 0
-183 -184 0
-183 -185 0
-184 -185 0
181 182 183 184 185 0
-186 -187 0
-186 -188 0
-186 -189 0
-186 -190 0
-187 -188 0
-187 -189 0
-187 -190 0
-188 -189 0
-188 -190 0
-189 -190 0
186 187 188 189 190 0
-191 -192 0
-191 -193 0
-191 -194 0
-191 -195 0
-192 -193 0
-192 -194 0
-192 -195 0
-193 -194 0
-193 -195 0
-194 -195 0
191 192 193 194 195 0
-196 -197 0
-196 -198 0
-196 -199 0
-196 -200 0
-197 -198 0
-197 -199 0
-197 -200 0
-198 -199 0
-198 -200 0
-199 -200 0
196 197 198 199 200 0
-201 -202 0
-201 -203 0
-201 -204 0
-201 -205 0
-202 -203 0
-202 -204 0
-202 -205 0
-203 -204 0
-203 -205 0
-204 -205 0
201 202 203 204 205 0
-206 -207 0
-206 -208 0
-206 -209 0
-206 -210 0
-207 -208 0
-207 -209 0
-207 -210 0
-208 -209 0
-208 -210 0
-209 -210 0
206 207 208 209 210 0
-211 -212 0
-211 -213 0
-211 -214 0
-211 -215 0
-212 -213 0
-212 -214 0
-212 -215 0
-213 -214 0
-213 -215 0
-214 -215 0
211 212 213 214 215 0
-216 -217 0
-216 -218 0
-216 -219 0
-216 -220 0
-217 -218 0
-217 -219 0
-217 -220 0
-218 -219 0
-218 -220 0
-219 -220 0
216 217 218 219 220 0
-221 -222 0
-221 -223 0
-221 -224 0
-221 -225 0
-222 -223 0
-222 -224 0
-222 -225 0
-223 -224 0
-223 -225 0
-224 -225 0
221 222 223 224 225 0
-226 -227 0
-226 -228 0
-226 -229 0
-226 -230 0
-227 -228 0
-227 -229 0
-227 -230 0
-228 -229 0
-228 -230 0
-229 -230 0
226 227 228 229 230 0
-231 -232 0
-231 -233 0
-231 -234 0
-231 -235 0
-232 -233 0
-232 -234 0
-232 -235 0
-233 -234 0
-233 -235 0
-234 -235 0
231 232 233 234 235 0
-236 -237 0
-236 -238 0
-236 -239 0
-236 -240 0
-237 -238 0
-237 -239 0
-237 -240 0
-238 -239 0
-238 -240 0
-239 -240 0
236 237 238 239 240 0
-241 -242 0
-241 -243 0
-241 -244 0
-241 -245 0
-242 -243 0
-242 -244 0
-242 -245 0
-243 -244 0
-243 -245 0
-244 -245 0
241 242 243 244 245 0
-246 -247 0
-246 -248 0
-246 -249 0
-246 -250 0
-247 -248 0
-247 -249 0
-247 -250 0
-248 -249 0
-248 -250 0
-249 -250 0
246 247 248 249 250 0
-251 -252 0
-251 -253 0
-251 -254 0
-251 -255 0
-252 -253 0
-252 -254 0
-252 -255 0
-253 -254 0
-253 -255 0
-254 -255 0
251 252 253 254 255 0
-256 -257 0
-256 -258 0
-256 -259 0
-256 -260 0
-257 -258 0
-257 -259 0
-257 -260 0
-258 -259 0
-258 -260 0
-259 -260 0
256 257 258 259 260 0
-261 -262 0
-261 -263 0
-261 -264 0
-261 -265 0
-262 -263 0
-262 -264 0
-262 -265 0
-263 -264 0
-263 -265 0
-264 -265 0
261 262 263 264 265 0
-266 -267 0
-266 -268 0
-266 -269 0
-266 -270 0
-267 -268 0
-267 -269 0
-267 -270 0
-268 -269 0
-268 -270 0
-269 -270 0
266 267 268 269 270 0
-271 -272 0
-271 -273 0
-271 -274 0
-271 -275 0
-272 -273 0
-272 -274 0
-272 -275 0
-273 -274 0
-273 -275 0
-274 -275 0
271 272 273 274 275 0
-276 -277 0
-276 -278 0
-276 -279 0
-276 -280 0
-277 -278 0
-277 -279 0
-277 -280 0
-278 -279 0
-278 -280 0
-279 -280 0
276 277 278 279 280 0
-281 -282 0
-281 -283 0
-281 -284 0
-281 -285 0
-282 -283 0
-282 -284 0
-282 -285 0
-283 -284 0
-283 -285 0
-284 -285 0
281 282 283 284 285 0
-286 -287 0
-286 -288 0
-286 -289 0
-286 -290 0
-287 -288 0
-287 -289 0
-287 -290 0
-288 -289 0
-288 -290 0
-289 -290 0
286 287 288 289 290 0
-291 -292 0
-291 -293 0
-291 -294 0
-291 -295 0
-292 -293 0
-292 -294 0
-292 -295 0
-293 -294 0
-293 -295 0
-294 -295 0
291 292 293 294 295 0
-296 -297 0
-296 -298 0
-296 -299 0
-296 -300 0
-297 -298 0
-297 -299 0
-297 -300 0
-298 -299 0
-298 -300 0
-299 -300 0
296 297 298 299 300 0
-301 -302 0
-301 -303 0
-301 -304 0
-301 -305 0
-302 -303 0
-302 -304 0
-302 -305 0
-303 -304 0
-303 -305 0
-304 -305 0
301 302 303 304 305 0
-306 -307 0
-306 -308 0
-306 -309 0
-306 -310 0
-307 -308 0
-307 -309 0
-307 -310 0
-308 -309 0
-308 -310 0
-309 -310 0
306 307 308 309 310 0
-311 -312 0
-311 -313 0
-311 -314 0
-311 -315 0
-312 -313 0
-312 -314 0
-312 -315 0
-313 -314 0
-313 -315 0
-314 -315 0
311 312 313 314 315 0
-316 -317 0
-316 -318 0
-316 -319 0
-316 -320 0
-317 -318 0
-317 -319 0
-317 -320 0
-318 -319 0
-318 -320 0
-319 -320 0
316 317 318 319 320 0
-321 -322 0
-321 -323 0
-321 -324 0
-321 -325 0
-322 -323 0
-322 -324 0
-322 -325 0
-323 -324 0
-323 -325 0
-324 -325 0
321 322 323 324 325 0
-326 -327 0
-326 -328 0
-326 -329 0
-326 -330 0
-327 -328 0
-327 -329 0
-327 -330 0
-328 -329 0
-328 -330 0
-329 -330 0
326 327 328 329 330 0
-331 -332 0
-331 -333 0
-331 -334 0
-331 -335 0
-332 -333 0
-332 -334 0
-332 -335 0
-333 -334 0
-333 -335 0
-334 -335 0
331 332 333 334 335 0
-336 -337 0
-336 -338 0
-336 -339 0
-336 -340 0
-337 -338 0
-337 -339 0
-337 -340 0
-338 -339 0
-338 -340 0
-339 -340 0
336 337 338 339 340 0
-341 -342 0
-341 -343 0
-341 -344 0
-341 -345 0
-342 -343 0
-342 -344 0
-342 -345 0
-343 -344 0
-343 -345 0
-344 -345 0
341 342 343 344 345 0
-346 -347 0
-346 -348 0
-346 -349 0
-346 -350 0
-347 -348 0
-347 -349 0
-347 -350 0
-348 -349 0
-348 -350 0
-349 -350 0
346 347 348 349 350 0
-351 -352 0
-351 -353 0
-351 -354 0
-351 -355 0
-352 -353 0
-352 -354 0
-352 -355 0
-353 -354 0
-353 -355 0
-354 -355 0
351 352 353 354 355 0
-356 -357 0
-356 -358 0
-356 -359 0
-356 -360 0
-357 -358 0
-357 -359 0
-357 -360 0
-358 -359 0
-358 -360 0
-359 -360 0
356 357 358 359 360 0
-361 -362 0
-361 -363 0
-361 -364 0
-361 -365 0
-362 -363 0
-362 -364 0
-362 -365 0
-363 -364 0
-363 -365 0
-364 -365 0
361 362 363 364 365 0
-366 -367 0
-366 -368 0
-366 -369 0
-366 -370 0
-367 -368 0
-367 -369 0
-367 -370 0
-368 -369 0
-368 -370 0
-369 -370 0
366 367 368 369 370 0
-371 -372 0
-371 -373 0
-371 -374 0
-371 -375 0
-372 -373 0
-372 -374 0
-372 -375 0
-373 -374 0
-373 -375 0
-374 -375 0
371 372 373 374 375 0
-376 -377 0
-376 -378 0
-376 -379 0
-376 -380 0
-377 -378 0
-377 -379 0
-377 -380 0
-378 -379 0
-378 -380 0
-379 -380 0
376 377 378 379 380 0
-381 -382 0
-381 -383 0
-381 -384 0
-381 -385 0
-382 -383 0
-382 -384 0
-382 -385 0
-383 -384 0
-383 -385 0
-384 -385 0
381 382 383 384 385 0
-386 -387 0
-386 -388 0
-386 -389 0
-386 -390 0
-387 -388 0
-387 -389 0
-387 -390 0
-388 -389 0
-388 -390 0
-389 -390 0
386 387 388 389 390 0
-391 -392 0
-391 -393 0
-391 -394 0
-391 -395 0
-392 -393 0
-392 -394 0
-392 -395 0
-393 -394 0
-393 -395 0
-394 -395 0
391 392 393 394 395 0
-396 -397 0
-396 -398 0
-396 -399 0
-396 -400 0
-397 -398 0
-397 -399 0
-397 -400 0
-398 -399 0
-398 -400 0
-399 -400 0
396 397 398 399 400 0
-401 -402 0
-401 -403 0
-401 -404 0
-401 -405 0
-402 -403 0
-402 -404 0
-402 -405 0
-403 -404 0
-403 -405 0
-404 -405 0
401 402 403 404 405 0
-406 -407 0
-406 -408 0
-406 -409 0
-406 -410 0
-407 -408 0
-407 -409 0
-407 -410 0
-408 -409 0
-408 -410 0
-409 -410 0
406 407 408 409 410 0
-411 -412 0
-411 -413 0
-411 -414 0
-411 -415 0
-412 -413 0
-412 -414 0
-412 -415 0
-413 -414 0
-413 -415 0
-414 -415 0
411 412 413 414 415 0
-416 -417 0
-416 -418 0
-416 -419 0
-416 -420 0
-417 -418 0
-417 -419 0
-417 -420 0
-418 -419 0
-418 -420 0
-419 -420 0
416 417 418 419 420 0
-421 -422 0
-421 -423 0
-421 -424 0
-421 -425 0
-422 -423 0
-422 -424 0
-422 -425 0
-423 -424 0
-423 -425 0
-424 -425 0
421 422 423 424 425 0
-426 -427 0
-426 -428 0
-426 -429 0
-426 -430 0
-427 -428 0
-427 -429 0
-427 -430 0
-428 -429 0
-428 -430 0
-429 -430 0
426 427 428 429 430 0
-431 -432 0
-431 -433 0
-431 -434 0
-431 -435 0
-432 -433 0
-432 -434 0
-432 -435 0
-433 -434 0
-433 -435 0
-434 -435 0
431 432 433 434 435 0
-436 -437 0
-436 -438 0
-436 -439 0
-436 -440 0
-437 -438 0
-437 -439 0
-437 -440 0
-438 -439 0
-438 -440 0
-439 -440 0
436 437 438 439 440 0
-441 -442 0
-441 -443 0
-441 -444 0
-441 -445 0
-442 -443 0
-442 -444 0
-442 -445 0
-443 -444 0
-443 -445 0
-444 -445 0
441 442 443 444 445 0
-446 -447 0
-446 -448 0
-446 -449 0
-446 -450 0
-447 -448 0
-447 -449 0
-447 -450 0
-448 -449 0
-448 -450 0
-449 -450 0
446 447 448 449 450 0
-451 -452 0
-451 -453 0
-451 -454 0
-451 -455 0
-452 -453 0
-452 -454 0
-452 -455 0
-453 -454 0
-453 -455 0
-454 -455 0
451 452 453 454 455 0
-456 -457 0
-456 -458 0
-456 -459 0
-456 -460 0
-457 -458 0
-457 -459 0
-457 -460 0
-458 -459 0
-458 -460 0
-459 -460 0
456 457 458 459 460 0
-461 -462 0
-461 -463 0
-461 -464 0
-461 -465 0
-462 -463 0
-462 -464 0
-462 -465 0
-463 -464 0
-463 -465 0
-464 -465 0
461 462 463 464 465 0
-466 -467 0
-466 -468 0
-466 -469 0
-466 -470 0
-467 -468 0
-467 -469 0
-467 -470 0
-468 -469 0
-468 -470 0
-469 -470 0
466 467 468 469 470 0
-471 -472 0
-471 -473 0
-471 -474 0
-471 -475 0
-472 -473 0
-472 -474 0
-472 -475 0
-473 -474 0
-473 -475 0
-474 -475 0
471 472 473 474 475 0
-476 -477 0
-476 -478 0
-476 -479 0
-476 -480 0
-477 -478 0
-477 -479 0
-477 -480 0
-478 -479 0
-478 -480 0
-479 -480 0
476 477 478 479 480 0
-481 -482 0
-481 -483 0
-481 -484 0
-481 -485 0
-482 -483 0
-482 -484 0
-482 -485 0
-483 -484 0
-483 -485 0
-484 -485 0
481 482 483 484 485 0
-486 -487 0
-486 -488 0
-486 -489 0
-486 -490 0
-487 -488 0
-487 -489 0
-487 -490 0
-488 -489 0
-488 -490 0
-489 -490 0
486 487 488 489 490 0
-491 -492 0
-491 -493 0
-491 -494 0
-491 -495 0
-492 -493 0
-492 -494 0
-492 -495 0
-493 -494 0
-493 -495 0
-494 -495 0
491 492 493 494 495 0
-496 -497 0
-496 -498 0
-496 -499 0
-496 -500 0
-497 -498 0
-497 -499 0
-497 -500 0
-498 -499 0
-498 -500 0
-499 -500 0
496 497 498 499 500 0
-1 -6 0
-2 -7 0
-3 -8 0
-4 -9 0
-5 -10 0
-16 -36 0
-17 -37 0
-18 -38 0
-19 -39 0
-20 -40 0
-31 -41 0
-32 -42 0
-33 -43 0
-34 -44 0
-35 -45 0
-36 -51 0
-37 -52 0
-38 -53 0
-39 -54 0
-40 -55 0
-46 -56 0
-47 -57 0
-48 -58 0
-49 -59 0
-50 -60 0
-86 -96 0
-87 -97 0
-88 -98 0
-89 -99 0
-90 -100 0
-96 -111 0
-97 -112 0
-98 -113 0
-99 -114 0
-100 -115 0
-116 -136 0
-117 -137 0
-118 -138 0
-119 -139 0
-120 -140 0
-126 -131 0
-127 -132 0
-128 -133 0
-129 -134 0
-130 -135 0
-131 -141 0
-132 -142 0
-133 -143 0
-134 -144 0
-135 -145 0
-156 -161 0
-157 -162 0
-158 -163 0
-159 -164 0
-160 -165 0
-201 -206 0
-202 -207 0
-203 -208 0
-204 -209 0
-205 -210 0
-201 -216 0
-202 -217 0
-203 -218 0
-204 -219 0
-205 -220 0
-281 -301 0
-282 -302 0
-283 -303 0
-284 -304 0
-285 -305 0
-286 -296 0
-287 -297 0
-288 -298 0
-289 -299 0
-290 -300 0
-291 -311 0
-292 -312 0
-293 -313 0
-294 -314 0
-295 -315 0
-321 -326 0
-322 -327 0
-323 -328 0
-324 -329 0
-325 -330 0
-331 -341 0
-332 -342 0
-333 -343 0
-334 -344 0
-335 -345 0
-331 -346 0
-332 -347 0
-333 -348 0
-334 -349 0
-335 -350 0
-341 -346 0
-342 -347 0
-343 -348 0
-344 -349 0
-345 -350 0
-346 -366 0
-347 -367 0
-348 -368 0
-349 -369 0
-350 -370 0
-351 -361 0
-352 -362 0
-353 -363 0
-354 -364 0
-355 -365 0
-376 -381 0
-377 -382 0
-378 -383 0
-379 -384 0
-380 -385 0
-396 -411 0
-397 -412 0
-398 -413 0
-399 -414 0
-400 -415 0
-406 -421 0
-407 -422 0
-408 -423 0
-409 -424 0
-410 -425 0
-411 -416 0
-412 -417 0
-413 -418 0
-414 -419 0
-415 -420 0
-416 -421 0
-417 -422 0
-418 -423 0
-419 -424 0
-420 -425 0
-421 -436 0
-422 -437 0
-423 -438 0
-424 -439 0
-425 -440 0
-431 -441 0
-432 -442 0
-433 -443 0
-434 -444 0
-435 -445 0
-436 -456 0
-437 -457 0
-438 -458 0
-439 -459 0
-440 -460 0
-466 -481 0
-467 -482 0
-468 -483 0
-469 -484 0
-470 -485 0
-471 -476 0
-472 -477 0
-473 -478 0
-474 -479 0
-475 -480 0
-476 -481 0
-477 -482 0
-478 -483 0
-479 -484 0
-480 -485 0
-1 -481 0
-2 -482 0
-3 -483 0
-4 -484 0
-5 -485 0
-296 -306 0
-297 -307 0
-298 -308 0
-299 -309 0
-300 -310 0
-186 -206 0
-187 -207 0
-188 -208 0
-189 -209 0
-190 -210 0
-341 -356 0
-342 -357 0
-343 -358 0
-344 -359 0
-345 -360 0
-1 -496 0
-2 -497 0
-3 -498 0
-4 -499 0
-5 -500 0
-1 -491 0
-2 -492 0
-3 -493 0
-4 -494 0
-5 -495 0
-431 -451 0
-432 -452 0
-433 -453 0
-434 -454 0
-435 -455 0
-191 -196 0
-192 -197 0
-193 -198 0
-194 -199 0
-195 -200 0
-341 -351 0
-342 -352 0
-343 -353 0
-344 -354 0
-345 -355 0
-406 -411 0
-407 -412 0
-408 -413 0
-409 -414 0
-410 -415 0
-16 -21 0
-17 -22 0
-18 -23 0
-19 -24 0
-20 -25 0
-211 -231 0
-212 -232 0
-213 -233 0
-214 -234 0
-215 -235 0
-471 -486 0
-472 -487 0
-473 -488 0
-474 -489 0
-475 -490 0
-121 -141 0
-122 -142 0
-123 -143 0
-124 -144 0
-125 -145 0
-111 -116 0
-112 -117 0
-113 -118 0
-114 -119 0
-115 -120 0
-226 -236 0
-227 -237 0
-228 -238 0
-229 -239 0
-230 -240 0
-66 -76 0
-67 -77 0
-68 -78 0
-69 -79 0
-70 -80 0
-276 -281 0
-277 -282 0
-278 -283 0
-279 -284 0
-280 -285 0
-156 -171 0
-157 -172 0
-158 -173 0
-159 -174 0
-160 -175 0
-111 -121 0
-112 -122 0
-113 -123 0
-114 -124 0
-115 -125 0
-26 -41 0
-27 -42 0
-28 -43 0
-29 -44 0
-30 -45 0
-416 -426 0
-417 -427 0
-418 -428 0
-419 -429 0
-420 -430 0
-436 -451 0
-437 -452 0
-438 -453 0
-439 -454 0
-440 -455 0
-426 -441 0
-427 -442 0
-428 -443 0
-429 -444 0
-430 -445 0
-76 -86 0
-77 -87 0
-78 -88 0
-79 -89 0
-80 -90 0
-426 -446 0
-427 -447 0
-428 -448 0
-429 -449 0
-430 -450 0
-421 -431 0
-422 -432 0
-423 -433 0
-424 -434 0
-425 -435 0
-306 -321 0
-307 -322 0
-308 -323 0
-309 -324 0
-310 -325 0
-106 -116 0
-107 -117 0
-108 -118 0
-109 -119 0
-110 -120 0
-351 -356 0
-352 -357 0
-353 -358 0
-354 -359 0
-355 -360 0
-176 -181 0
-177 -182 0
-178 -183 0
-179 -184 0
-180 -185 0
-51 -61 0
-52 -62 0
-53 -63 0
-54 -64 0
-55 -65 0
-416 -436 0
-417 -437 0
-418 -438 0
-419 -439 0
-420 -440 0
-446 -461 0
-447 -462 0
-448 -463 0
-449 -464 0
-450 -465 0
-96 -101 0
-97 -102 0
-98 -103 0
-99 -104 0
-100 -105 0
-181 -186 0
-182 -187 0
-183 -188 0
-184 -189 0
-185 -190 0
-461 -466 0
-462 -467 0
-463 -468 0
-464 -469 0
-465 -470 0
-101 -111 0
-102 -112 0
-103 -113 0
-104 -114 0
-105 -115 0
-146 -161 0
-147 -162 0
-148 -163 0
-149 -164 0
-150 -165 0
-266 -276 0
-267 -277 0
-268 -278 0
-269 -279 0
-270 -280 0
-231 -251 0
-232 -252 0
-233 -253 0
-234 -254 0
-235 -255 0
-231 -241 0
-232 -242 0
-233 -243 0
-234 -244 0
-235 -245 0
-356 -371 0
-357 -372 0
-358 -373 0
-359 -374 0
-360 -375 0
-56 -76 0
-57 -77 0
-58 -78 0
-59 -79 0
-60 -80 0
-121 -131 0
-122 -132 0
-123 -133 0
-124 -134 0
-125 -135 0
-146 -156 0
-147 -157 0
-148 -158 0
-149 -159 0
-150 -160 0
-336 -356 0
-337 -357 0
-338 -358 0
-339 -359 0
-340 -360 0
-451 -456 0
-452 -457 0
-453 -458 0
-454 -459 0
-455 -460 0
-361 -381 0
-362 -382 0
-363 -383 0
-364 -384 0
-365 -385 0
-276 -296 0
-277 -297 0
-278 -298 0
-279 -299 0
-280 -300 0
-366 -386 0
-367 -387 0
-368 -388 0
-369 -389 0
-370 -390 0
-401 -411 0
-402 -412 0
-403 -413 0
-404 -414 0
-405 -415 0
-11 -26 0
-12 -27 0
-13 -28 0
-14 -29 0
-15 -30 0
-301 -321 0
-302 -322 0
-303 -323 0
-304 -324 0
-305 -325 0
-236 -256 0
-237 -257 0
-238 -258 0
-239 -259 0
-240 -260 0
-336 -351 0
-337 -352 0
-338 -353 0
-339 -354 0
-340 -355 0
-116 -121 0
-117 -122 0
-118 -123 0
-119 -124 0
-120 -125 0
-456 -461 0
-457 -462 0
-458 -463 0
-459 -464 0
-460 -465 0
-396 -406 0
-397 -407 0
-398 -408 0
-399 -409 0
-400 -410 0
-481 -486 0
-482 -487 0
-483 -488 0
-484 -489 0
-485 -490 0
-381 -401 0
-382 -402 0
-383 -403 0
-384 -404 0
-385 -405 0
-296 -311 0
-297 -312 0
-298 -313 0
-299 -314 0
-300 -315 0
-391 -411 0
-392 -412 0
-393 -413 0
-394 -414 0
-395 -415 0
-391 -396 0
-392 -397 0
-393 -398 0
-394 -399 0
-395 -400 0
-446 -456 0
-447 -457 0
-448 -458 0
-449 -459 0
-450 -460 0
-351 -371 0
-352 -372 0
-353 -373 0
-354 -374 0
-355 -375 0
-316 -326 0
-317 -327 0
-318 -328 0
-319 -329 0
-320 -330 0
-296 -301 0
-297 -302 0
-298 -303 0
-299 -304 0
-300 -305 0
-41 -51 0
-42 -52 0
-43 -53 0
-44 -54 0
-45 -55 0
-31 -51 0
-32 -52 0
-33 -53 0
-34 -54 0
-35 -55 0
-1 -486 0
-2 -487 0
-3 -488 0
-4 -489 0
-5 -490 0
-6 -496 0
-7 -497 0
-8 -498 0
-9 -499 0
-10 -500 0
-346 -351 0
-347 -352 0
-348 -353 0
-349 -354 0
-350 -355 0
-46 -61 0
-47 -62 0
-48 -63 0
-49 -64 0
-50 -65 0
-161 -176 0
-162 -177 0
-163 -178 0
-164 -179 0
-165 -180 0
-151 -161 0
-152 -162 0
-153 -163 0
-154 -164 0
-155 -165 0
-411 -431 0
-412 -432 0
-413 -433 0
-414 -434 0
-415 -435 0
-316 -336 0
-317 -337 0
-318 -338 0
-319 -339 0
-320 -340 0
-371 -386 0
-372 -387 0
-373 -388 0
-374 -389 0
-375 -390 0
-311 -326 0
-312 -327 0
-313 -328 0
-314 -329 0
-315 -330 0
-391 -401 0
-392 -402 0
-393 -403 0
-394 -404 0
-395 -405 0
-391 -406 0
-392 -407 0
-393 -408 0
-394 -409 0
-395 -410 0
-11 -16 0
-12 -17 0
-13 -18 0
-14 -19 0
-15 -20 0
-216 -231 0
-217 -232 0
-218 -233 0
-219 -234 0
-220 -235 0
-61 -66 0
-62 -67 0
-63 -68 0
-64 -69 0
-65 -70 0
-226 -241 0
-227 -242 0
-228 -243 0
-229 -244 0
-230 -245 0
-81 -96 0
-82 -97 0
-83 -98 0
-84 -99 0
-85 -100 0
-236 -246 0
-237 -247 0
-238 -248 0
-239 -249 0
-240 -250 0
-256 -261 0
-257 -262 0
-258 -263 0
-259 -264 0
-260 -265 0
-221 -231 0
-222 -232 0
-223 -233 0
-224 -234 0
-225 -235 0
-101 -106 0
-102 -107 0
-103 -108 0
-104 -109 0
-105 -110 0
-446 -466 0
-447 -467 0
-448 -468 0
-449 -469 0
-450 -470 0
-136 -141 0
-137 -142 0
-138 -143 0
-139 -144 0
-140 -145 0
-1 -11 0
-2 -12 0
-3 -13 0
-4 -14 0
-5 -15 0
-481 -496 0
-482 -497 0
-483 -498 0
-484 -499 0
-485 -500 0
-176 -186 0
-177 -187 0
-178 -188 0
-179 -189 0
-180 -190 0
-41 -46 0
-42 -47 0
-43 -48 0
-44 -49 0
-45 -50 0
-136 -151 0
-137 -152 0
-138 -153 0
-139 -154 0
-140 -155 0
-476 -486 0
-477 -487 0
-478 -488 0
-479 -489 0
-480 -490 0
-321 -331 0
-322 -332 0
-323 -333 0
-324 -334 0
-325 -335 0
-271 -281 0
-272 -282 0
-273 -283 0
-274 -284 0
-275 -285 0
-266 -286 0
-267 -287 0
-268 -288 0
-269 -289 0
-270 -290 0
-96 -116 0
-97 -117 0
-98 -118 0
-99 -119 0
-100 -120 0
-86 -101 0
-87 -102 0
-88 -103 0
-89 -104 0
-90 -105 0
-6 -11 0
-7 -12 0
-8 -13 0
-9 -14 0
-10 -15 0
-361 -366 0
-362 -367 0
-363 -368 0
-364 -369 0
-365 -370 0
-326 -331 0
-327 -332 0
-328 -333 0
-329 -334 0
-330 -335 0
-176 -191 0
-177 -192 0
-178 -193 0
-179 -194 0
-180 -195 0
-71 -81 0
-72 -82 0
-73 -83 0
-74 -84 0
-75 -85 0
-366 -371 0
-367 -372 0
-368 -373 0
-369 -374 0
-370 -375 0
-186 -191 0
-187 -192 0
-188 -193 0
-189 -194 0
-190 -195 0
-181 -191 0
-182 -192 0
-183 -193 0
-184 -194 0
-185 -195 0
-46 -51 0
-47 -52 0
-48 -53 0
-49 -54 0
-50 -55 0
-286 -301 0
-287 -302 0
-288 -303 0
-289 -304 0
-290 -305 0
-281 -296 0
-282 -297 0
-283 -298 0
-284 -299 0
-285 -300 0
-286 -291 0
-287 -292 0
-288 -293 0
-289 -294 0
-290 -295 0
-156 -166 0
-157 -167 0
-158 -168 0
-159 -169 0
-160 -170 0
-256 -266 0
-257 -267 0
-258 -268 0
-259 -269 0
-260 -270 0
-241 -261 0
-242 -262 0
-243 -263 0
-244 -264 0
-245 -265 0
-431 -436 0
-432 -437 0
-433 -438 0
-434 -439 0
-435 -440 0
-371 -376 0
-372 -377 0
-373 -378 0
-374 -379 0
-375 -380 0
-41 -56 0
-42 -57 0
-43 -58 0
-44 -59 0
-45 -60 0
-311 -316 0
-312 -317 0
-313 -318 0
-314 -319 0
-315 -320 0
-121 -136 0
-122 -137 0
-123 -138 0
-124 -139 0
-125 -140 0
-161 -181 0
-162 -182 0
-163 -183 0
-164 -184 0
-165 -185 0
-306 -326 0
-307 -327 0
-308 -328 0
-309 -329 0
-310 -330 0
-381 -391 0
-382 -392 0
-383 -393 0
-384 -394 0
-385 -395 0
-91 -111 0
-92 -112 0
-93 -113 0
-94 -114 0
-95 -115 0
-346 -356 0
-347 -357 0
-348 -358 0
-349 -359 0
-350 -360 0
-51 -56 0
-52 -57 0
-53 -58 0
-54 -59 0
-55 -60 0
-311 -321 0
-312 -322 0
-313 -323 0
-314 -324 0
-315 -325 0
-31 -36 0
-32 -37 0
-33 -38 0
-34 -39 0
-35 -40 0
-36 -46 0
-37 -47 0
-38 -48 0
-39 -49 0
-40 -50 0
-166 -186 0
-167 -187 0
-168 -188 0
-169 -189 0
-170 -190 0
-491 -496 0
-492 -497 0
-493 -498 0
-494 -499 0
-495 -500 0
-136 -156 0
-137 -157 0
-138 -158 0
-139 -159 0
-140 -160 0
-486 -496 0
-487 -497 0
-488 -498 0
-489 -499 0
-490 -500 0
-86 -106 0
-87 -107 0
-88 -108 0
-89 -109 0
-90 -110 0
-11 -496 0
-12 -497 0
-13 -498 0
-14 -499 0
-15 -500 0
-231 -236 0
-232 -237 0
-233 -238 0
-234 -239 0
-235 -240 0
-486 -491 0
-487 -492 0
-488 -493 0
-489 -494 0
-490 -495 0
-61 -71 0
-62 -72 0
-63 -73 0
-64 -74 0
-65 -75 0
-6 -21 0
-7 -22 0
-8 -23 0
-9 -24 0
-10 -25 0
-326 -336 0
-327 -337 0
-328 -338 0
-329 -339 0
-330 -340 0
-356 -361 0
-357 -362 0
-358 -363 0
-359 -364 0
-360 -365 0
-66 -81 0
-67 -82 0
-68 -83 0
-69 -84 0
-70 -85 0
-26 -31 0
-27 -32 0
-28 -33 0
-29 -34 0
-30 -35 0
-276 -291 0
-277 -292 0
-278 -293 0
-279 -294 0
-280 -295 0
-206 -226 0
-207 -227 0
-208 -228 0
-209 -229 0
-210 -230 0
-246 -251 0
-247 -252 0
-248 -253 0
-249 -254 0
-250 -255 0
-191 -211 0
-192 -212 0
-193 -213 0
-194 -214 0
-195 -215 0
-336 -346 0
-337 -347 0
-338 -348 0
-339 -349 0
-340 -350 0
-466 -476 0
-467 -477 0
-468 -478 0
-469 -479 0
-470 -480 0
-266 -271 0
-267 -272 0
-268 -273 0
-269 -274 0
-270 -275 0
-6 -26 0
-7 -27 0
-8 -28 0
-9 -29 0
-10 -30 0
-306 -316 0
-307 -317 0
-308 -318 0
-309 -319 0
-310 -320 0
-426 -431 0
-427 -432 0
-428 -433 0
-429 -434 0
-430 -435 0
-371 -381 0
-372 -382 0
-373 -383 0
-374 -384 0
-375 -385 0
-101 -121 0
-102 -122 0
-103 -123 0
-104 -124 0
-105 -125 0
-6 -491 0
-7 -492 0
-8 -493 0
-9 -494 0
-10 -495 0
-406 -416 0
-407 -417 0
-408 -418 0
-409 -419 0
-410 -420 0
-381 -386 0
-382 -387 0
-383 -388 0
-384 -389 0
-385 -390 0
-461 -471 0
-462 -472 0
-463 -473 0
-464 -474 0
-465 -475 0
-386 -391 0
-387 -392 0
-388 -393 0
-389 -394 0
-390 -395 0
-436 -441 0
-437 -442 0
-438 -443 0
-439 -444 0
-440 -445 0
-201 -221 0
-202 -222 0
-203 -223 0
-204 -224 0
-205 -225 0
-61 -76 0
-62 -77 0
-63 -78 0
-64 -79 0
-65 -80 0
-316 -331 0
-317 -332 0
-318 -333 0
-319 -334 0
-320 -335 0
-221 -241 0
-222 -242 0
-223 -243 0
-224 -244 0
-225 -245 0
-186 -196 0
-187 -197 0
-188 -198 0
-189 -199 0
-190 -200 0
-51 -71 0
-52 -72 0
-53 -73 0
-54 -74 0
-55 -75 0
-201 -211 0
-202 -212 0
-203 -213 0
-204 -214 0
-205 -215 0
-251 -266 0
-252 -267 0
-253 -268 0
-254 -269 0
-255 -270 0
-461 -476 0
-462 -477 0
-463 -478 0
-464 -479 0
-465 -480 0
-11 -21 0
-12 -22 0
-13 -23 0
-14 -24 0
-15 -25 0
-451 -461 0
-452 -462 0
-453 -463 0
-454 -464 0
-455 -465 0
-456 -466 0
-457 -467 0
-458 -468 0
-459 -469 0
-460 -470 0
-156 -176 0
-157 -177 0
-158 -178 0
-159 -179 0
-160 -180 0
-301 -311 0
-302 -312 0
-303 -313 0
-304 -314 0
-305 -315 0
-96 -106 0
-97 -107 0
-98 -108 0
-99 -109 0
-100 -110 0
-396 -401 0
-397 -402 0
-398 -403 0
-399 -404 0
-400 -405 0
-241 -256 0
-242 -257 0
-243 -258 0
-244 -259 0
-245 -260 0
-126 -141 0
-127 -142 0
-128 -143 0
-129 -144 0
-130 -145 0
-476 -491 0
-477 -492 0
-478 -493 0
-479 -494 0
-480 -495 0
-146 -371 0
-147 -372 0
-148 -373 0
-149 -374 0
-150 -375 0
-61 -136 0
-62 -137 0
-63 -138 0
-64 -139 0
-65 -140 0
-91 -486 0
-92 -487 0
-93 -488 0
-94 -489 0
-95 -490 0
-196 -466 0
-197 -467 0
-198 -468 0
-199 -469 0
-200 -470 0
-296 -356 0
-297 -357 0
-298 -358 0
-299 -359 0
-300 -360 0
-81 -496 0
-82 -497 0
-83 -498 0
-84 -499 0
-85 -500 0
-46 -131 0
-47 -132 0
-48 -133 0
-49 -134 0
-50 -135 0
-251 -461 0
-252 -462 0
-253 -463 0
-254 -464 0
-255 -465 0
-91 -391 0
-92 -392 0
-93 -393 0
-94 -394 0
-95 -395 0
-186 -386 0
-187 -387 0
-188 -388 0
-189 -389 0
-190 -390 0
-401 -436 0
-402 -437 0
-403 -438 0
-404 -439 0
-405 -440 0
-21 -491 0
-22 -492 0
-23 -493 0
-24 -494 0
-25 -495 0
-86 -481 0
-87 -482 0
-88 -483 0
-89 -484 0
-90 -485 0
-211 -396 0
-212 -397 0
-213 -398 0
-214 -399 0
-215 -400 0
-306 -356 0
-307 -357 0
-308 -358 0
-309 -359 0
-310 -360 0
-81 -351 0
-82 -352 0
-83 -353 0
-84 -354 0
-85 -355 0
-111 -156 0
-112 -157 0
-113 -158 0
-114 -159 0
-115 -160 0
-1 -251 0
-2 -252 0
-3 -253 0
-4 -254 0
-5 -255 0
-126 -476 0
-127 -477 0
-128 -478 0
-129 -479 0
-130 -480 0
-246 -281 0
-247 -282 0
-248 -283 0
-249 -284 0
-250 -285 0
-336 -371 0
-337 -372 0
-338 -373 0
-339 -374 0
-340 -375 0
-51 -141 0
-52 -142 0
-53 -143 0
-54 -144 0
-55 -145 0
-46 -296 0
-47 -297 0
-48 -298 0
-49 -299 0
-50 -300 0
-116 -306 0
-117 -307 0
-118 -308 0
-119 -309 0
-120 -310 0
-126 -426 0
-127 -427 0
-128 -428 0
-129 -429 0
-130 -430 0
-21 -411 0
-22 -412 0
-23 -413 0
-24 -414 0
-25 -415 0
-371 -411 0
-372 -412 0
-373 -413 0
-374 -414 0
-375 -415 0
-126 -296 0
-127 -297 0
-128 -298 0
-129 -299 0
-130 -300 0
-276 -446 0
-277 -447 0
-278 -448 0
-279 -449 0
-280 -450 0
-191 -336 0
-192 -337 0
-193 -338 0
-194 -339 0
-195 -340 0
-201 -376 0
-202 -377 0
-203 -378 0
-204 -379 0
-205 -380 0
-76 -401 0
-77 -402 0
-78 -403 0
-79 -404 0
-80 -405 0
-121 -476 0
-122 -477 0
-123 -478 0
-124 -479 0
-125 -480 0
-346 -371 0
-347 -372 0
-348 -373 0
-349 -374 0
-350 -375 0
-106 -301 0
-107 -302 0
-108 -303 0
-109 -304 0
-110 -305 0
-11 -216 0
-12 -217 0
-13 -218 0
-14 -219 0
-15 -220 0
-151 -461 0
-152 -462 0
-153 -463 0
-154 -464 0
-155 -465 0
-231 -326 0
-232 -327 0
-233 -328 0
-234 -329 0
-235 -330 0
-351 -396 0
-352 -397 0
-353 -398 0
-354 -399 0
-355 -400 0
-396 -446 0
-397 -447 0
-398 -448 0
-399 -449 0
-400 -450 0
-241 -436 0
-242 -437 0
-243 -438 0
-244 -439 0
-245 -440 0
-181 -321 0
-182 -322 0
-183 -323 0
-184 -324 0
-185 -325 0
-191 -456 0
-192 -457 0
-193 -458 0
-194 -459 0
-195 -460 0
-71 -421 0
-72 -422 0
-73 -423 0
-74 -424 0
-75 -425 0
-236 -326 0
-237 -327 0
-238 -328 0
-239 -329 0
-240 -330 0
-246 -276 0
-247 -277 0
-248 -278 0
-249 -279 0
-250 -280 0
-191 -256 0
-192 -257 0
-193 -258 0
-194 -259 0
-195 -260 0
-11 -396 0
-12 -397 0
-13 -398 0
-14 -399 0
-15 -400 0
-191 -406 0
-192 -407 0
-193 -408 0
-194 -409 0
-195 -410 0
-166 -206 0
-167 -207 0
-168 -208 0
-169 -209 0
-170 -210 0
-16 -296 0
-17 -297 0
-18 -298 0
-19 -299 0
-20 -300 0
-6 -396 0
-7 -397 0
-8 -398 0
-9 -399 0
-10 -400 0
-291 -326 0
-292 -327 0
-293 -328 0
-294 -329 0
-295 -330 0
-91 -221 0
-92 -222 0
-93 -223 0
-94 -224 0
-95 -225 0
-151 -301 0
-152 -302 0
-153 -303 0
-154 -304 0
-155 -305 0
-321 -361 0
-322 -362 0
-323 -363 0
-324 -364 0
-325 -365 0
-166 -316 0
-167 -317 0
-168 -318 0
-169 -319 0
-170 -320 0
-316 -456 0
-317 -457 0
-318 -458 0
-319 -459 0
-320 -460 0
-26 -306 0
-27 -307 0
-28 -308 0
-29 -309 0
-30 -310 0
-21 -241 0
-22 -242 0
-23 -243 0
-24 -244 0
-25 -245 0
-71 -216 0
-72 -217 0
-73 -218 0
-74 -219 0
-75 -220 0
-266 -346 0
-267 -347 0
-268 -348 0
-269 -349 0
-270 -350 0
-116 -416 0
-117 -417 0
-118 -418 0
-119 -419 0
-120 -420 0
-86 -341 0
-87 -342 0
-88 -343 0
-89 -344 0
-90 -345 0
-326 -476 0
-327 -477 0
-328 -478 0
-329 -479 0
-330 -480 0
-66 -316 0
-67 -317 0
-68 -318 0
-69 -319 0
-70 -320 0
-41 -86 0
-42 -87 0
-43 -88 0
-44 -89 0
-45 -90 0
-191 -446 0
-192 -447 0
-193 -448 0
-194 -449 0
-195 -450 0
-171 -306 0
-172 -307 0
-173 -308 0
-174 -309 0
-175 -310 0
-66 -141 0
-67 -142 0
-68 -143 0
-69 -144 0
-70 -145 0
-56 -321 0
-57 -322 0
-58 -323 0
-59 -324 0
-60 -325 0
-316 -471 0
-317 -472 0
-318 -473 0
-319 -474 0
-320 -475 0
-136 -386 0
-137 -387 0
-138 -388 0
-139 -389 0
-140 -390 0
-241 -431 0
-242 -432 0
-243 -433 0
-244 -434 0
-245 -435 0
-31 -81 0
-32 -82 0
-33 -83 0
-34 -84 0
-35 -85 0
-286 -391 0
-287 -392 0
-288 -393 0
-289 -394 0
-290 -395 0
-111 -176 0
-112 -177 0
-113 -178 0
-114 -179 0
-115 -180 0
-36 -316 0
-37 -317 0
-38 -318 0
-39 -319 0
-40 -320 0
-421 -471 0
-422 -472 0
-423 -473 0
-424 -474 0
-425 -475 0
-336 -376 0
-337 -377 0
-338 -378 0
-339 -379 0
-340 -380 0
-166 -221 0
-167 -222 0
-168 -223 0
-169 -224 0
-170 -225 0
-116 -481 0
-117 -482 0
-118 -483 0
-119 -484 0
-120 -485 0
-1 -141 0
-2 -142 0
-3 -143 0
-4 -144 0
-5 -145 0
-91 -306 0
-92 -307 0
-93 -308 0
-94 -309 0
-95 -310 0
-71 -101 0
-72 -102 0
-73 -103 0
-74 -104 0
-75 -105 0
-206 -391 0
-207 -392 0
-208 -393 0
-209 -394 0
-210 -395 0
-306 -361 0
-307 -362 0
-308 -363 0
-309 -364 0
-310 -365 0
-121 -251 0
-122 -252 0
-123 -253 0
-124 -254 0
-125 -255 0
-61 -386 0
-62 -387 0
-63 -388 0
-64 -389 0
-65 -390 0
-11 -451 0
-12 -452 0
-13 -453 0
-14 -454 0
-15 -455 0
-26 -81 0
-27 -82 0
-28 -83 0
-29 -84 0
-30 -85 0
-196 -386 0
-197 -387 0
-198 -388 0
-199 -389 0
-200 -390 0
-201 -326 0
-202 -327 0
-203 -328 0
-204 -329 0
-205 -330 0
-61 -426 0
-62 -427 0
-63 -428 0
-64 -429 0
-65 -430 0
-101 -481 0
-102 -482 0
-103 -483 0
-104 -484 0
-105 -485 0
-31 -246 0
-32 -247 0
-33 -248 0
-34 -249 0
-35 -250 0
-56 -101 0
-57 -102 0
-58 -103 0
-59 -104 0
-60 -105 0
-51 -131 0
-52 -132 0
-53 -133 0
-54 -134 0
-55 -135 0
-46 -476 0
-47 -477 0
-48 -478 0
-49 -479 0
-50 -480 0
-51 -286 0
-52 -287 0
-53 -288 0
-54 -289 0
-55 -290 0
-41 -341 0
-42 -342 0
-43 -343 0
-44 -344 0
-45 -345 0
-151 -191 0
-152 -192 0
-153 -193 0
-154 -194 0
-155 -195 0
-66 -161 0
-67 -162 0
-68 -163 0
-69 -164 0
-70 -165 0
-326 -451 0
-327 -452 0
-328 -453 0
-329 -454 0
-330 -455 0
-351 -426 0
-352 -427 0
-353 -428 0
-354 -429 0
-355 -430 0
-91 -231 0
-92 -232 0
-93 -233 0
-94 -234 0
-95 -235 0
-401 -491 0
-402 -492 0
-403 -493 0
-404 -494 0
-405 -495 0
-36 -496 0
-37 -497 0
-38 -498 0
-39 -499 0
-40 -500 0
-221 -381 0
-222 -382 0
-223 -383 0
-224 -384 0
-225 -385 0
-196 -401 0
-197 -402 0
-198 -403 0
-199 -404 0
-200 -405 0
-321 -441 0
-322 -442 0
-323 -443 0
-324 -444 0
-325 -445 0
-131 -251 0
-132 -252 0
-133 -253 0
-134 -254 0
-135 -255 0
-51 -236 0
-52 -237 0
-53 -238 0
-54 -239 0
-55 -240 0
-356 -491 0
-357 -492 0
-358 -493 0
-359 -494 0
-360 -495 0
-116 -401 0
-117 -402 0
-118 -403 0
-119 -404 0
-120 -405 0
-21 -496 0
-22 -497 0
-23 -498 0
-24 -499 0
-25 -500 0
-51 -251 0
-52 -252 0
-53 -253 0
-54 -254 0
-55 -255 0
-191 -481 0
-192 -482 0
-193 -483 0
-194 -484 0
-195 -485 0
-321 -456 0
-322 -457 0
-323 -458 0
-324 -459 0
-325 -460 0
-56 -496 0
-57 -497 0
-58 -498 0
-59 -499 0
-60 -500 0
-161 -461 0
-162 -462 0
-163 -463 0
-164 -464 0
-165 -465 0
-151 -186 0
-152 -187 0
-153 -188 0
-154 -189 0
-155 -190 0
-41 -216 0
-42 -217 0
-43 -218 0
-44 -219 0
-45 -220 0
-216 -471 0
-217 -472 0
-218 -473 0
-219 -474 0
-220 -475 0
-26 -56 0
-27 -57 0
-28 -58 0
-29 -59 0
-30 -60 0
-46 -446 0
-47 -447 0
-48 -448 0
-49 -449 0
-50 -450 0
-116 -286 0
-117 -287 0
-118 -288 0
-119 -289 0
-120 -290 0
-176 -481 0
-177 -482 0
-178 -483 0
-179 -484 0
-180 -485 0
-66 -356 0
-67 -357 0
-68 -358 0
-69 -359 0
-70 -360 0
-206 -401 0
-207 -402 0
-208 -403 0
-209 -404 0
-210 -405 0
-166 -481 0
-167 -482 0
-168 -483 0
-169 -484 0
-170 -485 0
-61 -256 0
-62 -257 0
-63 -258 0
-64 -259 0
-65 -260 0
-326 -466 0
-327 -467 0
-328 -468 0
-329 -469 0
-330 -470 0
-231 -276 0
-232 -277 0
-233 -278 0
-234 -279 0
-235 -280 0
-271 -366 0
-272 -367 0
-273 -368 0
-274 -369 0
-275 -370 0
-71 -341 0
-72 -342 0
-73 -343 0
-74 -344 0
-75 -345 0
-91 -211 0
-92 -212 0
-93 -213 0
-94 -214 0
-95 -215 0
-71 -336 0
-72 -337 0
-73 -338 0
-74 -339 0
-75 -340 0
-106 -176 0
-107 -177 0
-108 -178 0
-109 -179 0
-110 -180 0
-276 -401 0
-277 -402 0
-278 -403 0
-279 -404 0
-280 -405 0
-156 -466 0
-157 -467 0
-158 -468 0
-159 -469 0
-160 -470 0
-436 -466 0
-437 -467 0
-438 -468 0
-439 -469 0
-440 -470 0
-61 -366 0
-62 -367 0
-63 -368 0
-64 -369 0
-65 -370 0
-356 -416 0
-357 -417 0
-358 -418 0
-359 -419 0
-360 -420 0
-206 -431 0
-207 -432 0
-208 -433 0
-209 -434 0
-210 -435 0
-261 -326 0
-262 -327 0
-263 -328 0
-264 -329 0
-265 -330 0
-36 -411 0
-37 -412 0
-38 -413 0
-39 -414 0
-40 -415 0
-16 -446 0
-17 -447 0
-18 -448 0
-19 -449 0
-20 -450 0
-351 -451 0
-352 -452 0
-353 -453 0
-354 -454 0
-355 -455 0
-111 -196 0
-112 -197 0
-113 -198 0
-114 -199 0
-115 -200 0
-66 -361 0
-67 -362 0
-68 -363 0
-69 -364 0
-70 -365 0
-166 -491 0
-167 -492 0
-168 -493 0
-169 -494 0
-170 -495 0
-131 -456 0
-132 -457 0
-133 -458 0
-134 -459 0
-135 -460 0
-266 -411 0
-267 -412 0
-268 -413 0
-269 -414 0
-270 -415 0
-1 -41 0
-2 -42 0
-3 -43 0
-4 -44 0
-5 -45 0
-241 -316 0
-242 -317 0
-243 -318 0
-244 -319 0
-245 -320 0
-116 -246 0
-117 -247 0
-118 -248 0
-119 -249 0
-120 -250 0
-306 -371 0
-307 -372 0
-308 -373 0
-309 -374 0
-310 -375 0
-311 -446 0
-312 -447 0
-313 -448 0
-314 -449 0
-315 -450 0
-116 -226 0
-117 -227 0
-118 -228 0
-119 -229 0
-120 -230 0
-356 -391 0
-357 -392 0
-358 -393 0
-359 -394 0
-360 -395 0
-116 -361 0
-117 -362 0
-118 -363 0
-119 -364 0
-120 -365 0
-16 -421 0
-17 -422 0
-18 -423 0
-19 -424 0
-20 -425 0
-231 -376 0
-232 -377 0
-233 -378 0
-234 -379 0
-235 -380 0
-176 -441 0
-177 -442 0
-178 -443 0
-179 -444 0
-180 -445 0
-211 -336 0
-212 -337 0
-213 -338 0
-214 -339 0
-215 -340 0
-156 -421 0
-157 -422 0
-158 -423 0
-159 -424 0
-160 -425 0
-236 -456 0
-237 -457 0
-238 -458 0
-239 -459 0
-240 -460 0
-251 -311 0
-252 -312 0
-253 -313 0
-254 -314 0
-255 -315 0
-61 -126 0
-62 -127 0
-63 -128 0
-64 -129 0
-65 -130 0
-36 -436 0
-37 -437 0
-38 -438 0
-39 -439 0
-40 -440 0
-21 -276 0
-22 -277 0
-23 -278 0
-24 -279 0
-25 -280 0
-151 -446 0
-152 -447 0
-153 -448 0
-154 -449 0
-155 -450 0
-336 -396 0
-337 -397 0
-338 -398 0
-339 -399 0
-340 -400 0
-131 -491 0
-132 -492 0
-133 -493 0
-134 -494 0
-135 -495 0
-6 -421 0
-7 -422 0
-8 -423 0
-9 -424 0
-10 -425 0
-276 -356 0
-277 -357 0
-278 -358 0
-279 -359 0
-280 -360 0
-181 -471 0
-182 -472 0
-183 -473 0
-184 -474 0
-185 -475 0
-151 -361 0
-152 -362 0
-153 -363 0
-154 -364 0
-155 -365 0
-91 -446 0
-92 -447 0
-93 -448 0
-94 -449 0
-95 -450 0
-181 -236 0
-182 -237 0
-183 -238 0
-184 -239 0
-185 -240 0
-256 -286 0
-257 -287 0
-258 -288 0
-259 -289 0
-260 -290 0
-276 -481 0
-277 -482 0
-278 -483 0
-279 -484 0
-280 -485 0
